************************************************************************
file with basedata            : cn146_.bas
initial value random generator: 92430392
************************************************************************
projects                      :  1
jobs (incl. supersource/sink ):  18
horizon                       :  123
RESOURCES
  - renewable                 :  2   R
  - nonrenewable              :  1   N
  - doubly constrained        :  0   D
************************************************************************
PROJECT INFORMATION:
pronr.  #jobs rel.date duedate tardcost  MPM-Time
    1     16      0       27        2       27
************************************************************************
PRECEDENCE RELATIONS:
jobnr.    #modes  #successors   successors
   1        1          3           2   3   4
   2        3          3          13  16  17
   3        3          3           5   6   7
   4        3          3           7  10  12
   5        3          2           8  12
   6        3          2           8  12
   7        3          2          13  16
   8        3          2           9  13
   9        3          2          10  11
  10        3          1          14
  11        3          2          14  17
  12        3          2          15  17
  13        3          1          15
  14        3          2          15  16
  15        3          1          18
  16        3          1          18
  17        3          1          18
  18        1          0        
************************************************************************
REQUESTS/DURATIONS:
jobnr. mode duration  R 1  R 2  N 1
------------------------------------------------------------------------
  1      1     0       0    0    0
  2      1     1       5    9    7
         2     8       4    7    6
         3     9       4    5    4
  3      1     7       5    4    6
         2     8       4    4    6
         3     9       4    3    6
  4      1     4       6   10    7
         2     6       6    8    5
         3     7       5    7    3
  5      1     1       5    8    8
         2     3       2    5    6
         3     3       2    6    5
  6      1     4       8    8    9
         2     5       8    7    8
         3    10       8    5    7
  7      1     1       7    6    9
         2     6       7    3    7
         3     7       7    2    5
  8      1     1       8    9    7
         2     6       7    9    5
         3     7       7    6    5
  9      1     2       7    8    8
         2     8       7    7    4
         3     9       5    6    1
 10      1     1       9    9    8
         2     2       6    5    8
         3     6       6    4    7
 11      1     2       9    8    6
         2     3       9    6    6
         3     7       8    5    4
 12      1     2       8    4    9
         2     3       6    2    8
         3     7       6    2    7
 13      1     1       9    9    7
         2     2       8    8    6
         3     4       8    5    4
 14      1     5       7   10    7
         2     5       9    9    8
         3     9       7    8    3
 15      1     6       9    6    9
         2    10       5    1    7
         3    10       3    4    4
 16      1     2       6    6    8
         2     7       5    5    6
         3     9       3    3    6
 17      1     1       6   10    6
         2     2       6   10    5
         3    10       5    9    4
 18      1     0       0    0    0
************************************************************************
RESOURCEAVAILABILITIES:
  R 1  R 2  N 1
   16   16   99
************************************************************************
